57
26
0 26 27 28 30 31 32 33 35 36 37 38 43 47 49 50 51 52 54 56
1 26 27 30 31 32 33 35 36 40 42 43 44 46 48 49 50 51 54 55 56
2 27 28 29 31 33 34 35 36 37 38 41 42 44 45 46 48 49 51 53 54 55 56
3 26 27 28 30 31 32 33 35 36 37 38 42 45 46 48 49 51 52 54 55
4 26 27 28 30 31 32 33 36 42 44 47 48 50 51 53 55 56
5 26 28 29 30 31 32 34 37 38 39 42 43 44 47 48 50 51 52 54 55
6 26 27 28 30 31 32 34 36 37 38 40 42 45 46 47 51 52 54 55
7 27 30 32 33 36 37 38 40 41 46 47 48 49 51 52 54 55 56
8 26 27 28 29 30 31 32 33 34 35 36 37 41 42 46 47 50 52 55
9 26 27 28 30 31 32 33 34 35 36 37 38 40 42 45 48 51 52 53 54 55
10 26 27 28 37 38 41 42 45 48 49 50 51 53 54 55
11 27 28 31 32 42 44 45 48 50 52 53 54 55
12 28 30 31 33 36 38 41 43 45 46 49 52 54
13 28 29 31 34 36 37 38 40 52 56
14 32 34 35 36 38 40 43 46
15 26 27 34 35 36 37 38 41 43 46 47 48 51 54
16 29 32 33 35 41 43 45 47 48 49 55
17 26 27 32 33 36 38 40 42 43 49 51 54
18 26 32 35 38 43 45 48 50
19 28 31 48 56
20 30 42 44 47 49 55
21 26 28 56
22 27 29 33 41
23 28 43 51
24 41
25 44
